N = 96;
M = 460;
Edge_Start = [1, 1, 2, 3, 3, 4, 4, 5, 6, 6, 7, 7, 7, 8, 8, 9, 10, 11, 11, 11, 12, 12, 13, 13, 13, 14, 14, 15, 15, 15, 16, 17, 17, 18, 19, 19, 19, 20, 20, 20, 21, 21, 21, 22, 22, 22, 23, 23, 23, 24, 24, 24, 25, 25, 25, 25, 26, 26, 26, 27, 27, 27, 28, 28, 28, 29, 30, 30, 30, 31, 31, 31, 32, 32, 32, 33, 33, 34, 34, 35, 35, 36, 37, 37, 37, 37, 38, 38, 38, 39, 40, 40, 40, 41, 41, 41, 42, 42, 42, 43, 43, 44, 44, 45, 45, 46, 46, 47, 47, 47, 48, 48, 48, 49, 49, 50, 50, 50, 51, 51, 52, 52, 53, 53, 53, 54, 55, 55, 55, 56, 56, 56, 57, 58, 59, 59, 60, 60, 61, 61, 61, 62, 62, 62, 63, 63, 63, 64, 64, 65, 65, 65, 66, 66, 66, 66, 67, 67, 67, 68, 68, 68, 69, 69, 70, 70, 71, 71, 71, 72, 72, 72, 73, 73, 74, 74, 75, 75, 76, 76, 76, 77, 77, 77, 78, 78, 78, 79, 79, 79, 80, 80, 81, 81, 81, 82, 82, 82, 83, 83, 84, 84, 84, 85, 85, 85, 86, 86, 86, 87, 88, 89, 89, 90, 90, 91, 91, 91, 92, 92, 93, 93, 93, 94, 95, 95, 95, 96, 96, 96, 72, 96, 96, 85, 86, 42, 57, 87, 55, 89, 66, 91, 95, 31, 33, 39, 75, 16, 32, 33, 20, 43, 21, 80, 85, 64, 71, 22, 41, 80, 18, 12, 19, 9, 17, 20, 22, 12, 19, 24, 13, 22, 24, 15, 19, 21, 25, 75, 76, 20, 21, 26, 23, 48, 49, 50, 24, 43, 85, 59, 60, 63, 44, 61, 63, 38, 44, 59, 63, 8, 32, 37, 11, 31, 68, 9, 11, 71, 82, 37, 86, 40, 31, 35, 38, 86, 29, 37, 95, 62, 36, 62, 90, 15, 72, 96, 4, 17, 84, 8, 26, 28, 30, 46, 70, 45, 78, 48, 50, 78, 25, 47, 64, 25, 87, 25, 47, 53, 55, 83, 10, 61, 50, 56, 79, 69, 5, 51, 88, 53, 60, 76, 58, 6, 27, 30, 27, 56, 28, 52, 76, 39, 40, 67, 27, 28, 30, 14, 48, 66, 67, 68, 7, 65, 67, 68, 62, 65, 66, 32, 65, 66, 54, 79, 45, 77, 14, 34, 74, 1, 41, 84, 74, 81, 71, 73, 23, 49, 23, 56, 61, 70, 78, 79, 46, 47, 77, 53, 69, 77, 13, 15, 73, 82, 84, 34, 81, 83, 42, 82, 42, 72, 81, 3, 13, 26, 3, 35, 37, 51, 89, 6, 88, 40, 91, 7, 90, 92, 91, 93, 92, 94, 95, 93, 7, 38, 93, 1, 2, 41];
Edge_End = [72, 96, 96, 85, 86, 42, 57, 87, 55, 89, 66, 91, 95, 31, 33, 39, 75, 16, 32, 33, 20, 43, 21, 80, 85, 64, 71, 22, 41, 80, 18, 12, 19, 9, 17, 20, 22, 12, 19, 24, 13, 22, 24, 15, 19, 21, 25, 75, 76, 20, 21, 26, 23, 48, 49, 50, 24, 43, 85, 59, 60, 63, 44, 61, 63, 38, 44, 59, 63, 8, 32, 37, 11, 31, 68, 9, 11, 71, 82, 37, 86, 40, 31, 35, 38, 86, 29, 37, 95, 62, 36, 62, 90, 15, 72, 96, 4, 17, 84, 8, 26, 28, 30, 46, 70, 45, 78, 48, 50, 78, 25, 47, 64, 25, 87, 25, 47, 53, 55, 83, 10, 61, 50, 56, 79, 69, 5, 51, 88, 53, 60, 76, 58, 6, 27, 30, 27, 56, 28, 52, 76, 39, 40, 67, 27, 28, 30, 14, 48, 66, 67, 68, 7, 65, 67, 68, 62, 65, 66, 32, 65, 66, 54, 79, 45, 77, 14, 34, 74, 1, 41, 84, 74, 81, 71, 73, 23, 49, 23, 56, 61, 70, 78, 79, 46, 47, 77, 53, 69, 77, 13, 15, 73, 82, 84, 34, 81, 83, 42, 82, 42, 72, 81, 3, 13, 26, 3, 35, 37, 51, 89, 6, 88, 40, 91, 7, 90, 92, 91, 93, 92, 94, 95, 93, 7, 38, 93, 1, 2, 41, 1, 1, 2, 3, 3, 4, 4, 5, 6, 6, 7, 7, 7, 8, 8, 9, 10, 11, 11, 11, 12, 12, 13, 13, 13, 14, 14, 15, 15, 15, 16, 17, 17, 18, 19, 19, 19, 20, 20, 20, 21, 21, 21, 22, 22, 22, 23, 23, 23, 24, 24, 24, 25, 25, 25, 25, 26, 26, 26, 27, 27, 27, 28, 28, 28, 29, 30, 30, 30, 31, 31, 31, 32, 32, 32, 33, 33, 34, 34, 35, 35, 36, 37, 37, 37, 37, 38, 38, 38, 39, 40, 40, 40, 41, 41, 41, 42, 42, 42, 43, 43, 44, 44, 45, 45, 46, 46, 47, 47, 47, 48, 48, 48, 49, 49, 50, 50, 50, 51, 51, 52, 52, 53, 53, 53, 54, 55, 55, 55, 56, 56, 56, 57, 58, 59, 59, 60, 60, 61, 61, 61, 62, 62, 62, 63, 63, 63, 64, 64, 65, 65, 65, 66, 66, 66, 66, 67, 67, 67, 68, 68, 68, 69, 69, 70, 70, 71, 71, 71, 72, 72, 72, 73, 73, 74, 74, 75, 75, 76, 76, 76, 77, 77, 77, 78, 78, 78, 79, 79, 79, 80, 80, 81, 81, 81, 82, 82, 82, 83, 83, 84, 84, 84, 85, 85, 85, 86, 86, 86, 87, 88, 89, 89, 90, 90, 91, 91, 91, 92, 92, 93, 93, 93, 94, 95, 95, 95, 96, 96, 96];
L = [1, 1, 1, 1, 1, 1, 1, 1, 1, 1, 1, 1, 1, 1, 1, 1, 1, 1, 1, 1, 1, 1, 1, 1, 1, 1, 1, 1, 1, 1, 1, 1, 1, 1, 1, 1, 1, 1, 1, 1, 1, 1, 1, 1, 1, 1, 1, 1, 1, 1, 1, 1, 1, 1, 1, 1, 1, 1, 1, 1, 1, 1, 1, 1, 1, 1, 1, 1, 1, 1, 1, 1, 1, 1, 1, 1, 1, 1, 1, 1, 1, 1, 1, 1, 1, 1, 1, 1, 1, 1, 1, 1, 1, 1, 1, 1, 1, 1, 1, 1, 1, 1, 1, 1, 1, 1, 1, 1, 1, 1, 1, 1, 1, 1, 1, 1, 1, 1, 1, 1, 1, 1, 1, 1, 1, 1, 1, 1, 1, 1, 1, 1, 1, 1, 1, 1, 1, 1, 1, 1, 1, 1, 1, 1, 1, 1, 1, 1, 1, 1, 1, 1, 1, 1, 1, 1, 1, 1, 1, 1, 1, 1, 1, 1, 1, 1, 1, 1, 1, 1, 1, 1, 1, 1, 1, 1, 1, 1, 1, 1, 1, 1, 1, 1, 1, 1, 1, 1, 1, 1, 1, 1, 1, 1, 1, 1, 1, 1, 1, 1, 1, 1, 1, 1, 1, 1, 1, 1, 1, 1, 1, 1, 1, 1, 1, 1, 1, 1, 1, 1, 1, 1, 1, 1, 1, 1, 1, 1, 1, 1, 1, 1, 1, 1, 1, 1, 1, 1, 1, 1, 1, 1, 1, 1, 1, 1, 1, 1, 1, 1, 1, 1, 1, 1, 1, 1, 1, 1, 1, 1, 1, 1, 1, 1, 1, 1, 1, 1, 1, 1, 1, 1, 1, 1, 1, 1, 1, 1, 1, 1, 1, 1, 1, 1, 1, 1, 1, 1, 1, 1, 1, 1, 1, 1, 1, 1, 1, 1, 1, 1, 1, 1, 1, 1, 1, 1, 1, 1, 1, 1, 1, 1, 1, 1, 1, 1, 1, 1, 1, 1, 1, 1, 1, 1, 1, 1, 1, 1, 1, 1, 1, 1, 1, 1, 1, 1, 1, 1, 1, 1, 1, 1, 1, 1, 1, 1, 1, 1, 1, 1, 1, 1, 1, 1, 1, 1, 1, 1, 1, 1, 1, 1, 1, 1, 1, 1, 1, 1, 1, 1, 1, 1, 1, 1, 1, 1, 1, 1, 1, 1, 1, 1, 1, 1, 1, 1, 1, 1, 1, 1, 1, 1, 1, 1, 1, 1, 1, 1, 1, 1, 1, 1, 1, 1, 1, 1, 1, 1, 1, 1, 1, 1, 1, 1, 1, 1, 1, 1, 1, 1, 1, 1, 1, 1, 1, 1, 1, 1, 1, 1, 1, 1, 1, 1, 1, 1, 1, 1, 1, 1, 1, 1, 1, 1, 1, 1, 1, 1, 1, 1, 1, 1, 1, 1, 1, 1, 1, 1, 1, 1];
T = [1, 1, 1, 1, 1, 1, 1, 1, 1, 1, 1, 1, 1, 1, 1, 1, 1, 1, 1, 1, 1, 1, 1, 1, 1, 1, 1, 1, 1, 1, 1, 1, 1, 1, 1, 1, 1, 1, 1, 1, 1, 1, 1, 1, 1, 1, 1, 1, 1, 1, 1, 1, 1, 1, 1, 1, 1, 1, 1, 1, 1, 1, 1, 1, 1, 1, 1, 1, 1, 1, 1, 1, 1, 1, 1, 1, 1, 1, 1, 1, 1, 1, 1, 1, 1, 1, 1, 1, 1, 1, 1, 1, 1, 1, 1, 1, 1, 1, 1, 1, 1, 1, 1, 1, 1, 1, 1, 1, 1, 1, 1, 1, 1, 1, 1, 1, 1, 1, 1, 1, 1, 1, 1, 1, 1, 1, 1, 1, 1, 1, 1, 1, 1, 1, 1, 1, 1, 1, 1, 1, 1, 1, 1, 1, 1, 1, 1, 1, 1, 1, 1, 1, 1, 1, 1, 1, 1, 1, 1, 1, 1, 1, 1, 1, 1, 1, 1, 1, 1, 1, 1, 1, 1, 1, 1, 1, 1, 1, 1, 1, 1, 1, 1, 1, 1, 1, 1, 1, 1, 1, 1, 1, 1, 1, 1, 1, 1, 1, 1, 1, 1, 1, 1, 1, 1, 1, 1, 1, 1, 1, 1, 1, 1, 1, 1, 1, 1, 1, 1, 1, 1, 1, 1, 1, 1, 1, 1, 1, 1, 1, 1, 1, 1, 1, 1, 1, 1, 1, 1, 1, 1, 1, 1, 1, 1, 1, 1, 1, 1, 1, 1, 1, 1, 1, 1, 1, 1, 1, 1, 1, 1, 1, 1, 1, 1, 1, 1, 1, 1, 1, 1, 1, 1, 1, 1, 1, 1, 1, 1, 1, 1, 1, 1, 1, 1, 1, 1, 1, 1, 1, 1, 1, 1, 1, 1, 1, 1, 1, 1, 1, 1, 1, 1, 1, 1, 1, 1, 1, 1, 1, 1, 1, 1, 1, 1, 1, 1, 1, 1, 1, 1, 1, 1, 1, 1, 1, 1, 1, 1, 1, 1, 1, 1, 1, 1, 1, 1, 1, 1, 1, 1, 1, 1, 1, 1, 1, 1, 1, 1, 1, 1, 1, 1, 1, 1, 1, 1, 1, 1, 1, 1, 1, 1, 1, 1, 1, 1, 1, 1, 1, 1, 1, 1, 1, 1, 1, 1, 1, 1, 1, 1, 1, 1, 1, 1, 1, 1, 1, 1, 1, 1, 1, 1, 1, 1, 1, 1, 1, 1, 1, 1, 1, 1, 1, 1, 1, 1, 1, 1, 1, 1, 1, 1, 1, 1, 1, 1, 1, 1, 1, 1, 1, 1, 1, 1, 1, 1, 1, 1, 1, 1, 1, 1, 1, 1, 1, 1, 1, 1, 1, 1, 1, 1, 1, 1, 1, 1, 1, 1, 1, 1, 1, 1, 1, 1, 1, 1, 1, 1, 1];
Lower_Bound = [10, 12, 13, 8, 7, 9, 16, 11, 13, 5, 13, 9, 12, 5, 11, 14, 8, 15, 9, 10, 11, 10, 3, 11, 2, 11, 3, 4, 15, 5, 12, 13, 12, 7, 14, 17, 13, 14, 14, 16, 10, 7, 10, 5, 4, 4, 2, 3, 3, 1, 5, 4, 0, 3, 6, 1, 9, 10, 4, 2, 3, 15, 4, 4, 15, 15, 16, 14, 2, 3, 6, 9, 8, 7, 4, 2, 2, 3, 1, 12, 8, 7, 6, 8, 12, 14, 4, 7, 8, 17, 17, 17, 16, 17, 15, 11];
Upper_Bound = [10, 12, 13, 8, 7, 9, 16, 11, 13, 5, 13, 9, 12, 5, 11, 14, 8, 15, 9, 10, 11, 10, 3, 11, 2, 11, 3, 4, 15, 5, 12, 13, 12, 7, 14, 17, 13, 14, 14, 16, 10, 7, 10, 5, 4, 4, 2, 3, 3, 1, 5, 4, 0, 3, 6, 1, 9, 10, 4, 2, 3, 15, 4, 4, 15, 15, 16, 14, 2, 3, 6, 9, 8, 7, 4, 2, 2, 3, 1, 12, 8, 7, 6, 8, 12, 14, 4, 7, 8, 17, 17, 17, 16, 17, 15, 11];
Start = 53;
End = 66;
Time = 15;
